language Essence 1.3
letting nnodes be 60
letting nrings be 45
letting capacity be 33
letting demand be 
{{1, 3},
{1, 4},
{1, 5},
{1, 6},
{1, 7},
{1, 10},
{1, 12},
{1, 13},
{1, 14},
{1, 16},
{1, 19},
{1, 20},
{1, 22},
{1, 24},
{1, 27},
{1, 28},
{1, 29},
{1, 30},
{1, 33},
{1, 34},
{1, 35},
{1, 36},
{1, 39},
{1, 40},
{1, 41},
{1, 42},
{1, 43},
{1, 44},
{1, 45},
{1, 46},
{1, 48},
{1, 51},
{1, 53},
{1, 55},
{1, 57},
{1, 58},
{1, 60},
{2, 4},
{2, 10},
{2, 18},
{2, 19},
{2, 24},
{2, 25},
{2, 27},
{2, 28},
{2, 30},
{2, 32},
{2, 34},
{2, 35},
{2, 37},
{2, 38},
{2, 40},
{2, 42},
{2, 45},
{2, 46},
{2, 49},
{2, 53},
{2, 54},
{2, 57},
{2, 58},
{2, 60},
{3, 4},
{3, 7},
{3, 8},
{3, 9},
{3, 12},
{3, 13},
{3, 14},
{3, 15},
{3, 17},
{3, 18},
{3, 21},
{3, 26},
{3, 28},
{3, 31},
{3, 33},
{3, 35},
{3, 36},
{3, 37},
{3, 38},
{3, 41},
{3, 42},
{3, 48},
{3, 51},
{3, 52},
{3, 53},
{3, 54},
{3, 56},
{3, 57},
{3, 59},
{3, 60},
{4, 6},
{4, 8},
{4, 10},
{4, 11},
{4, 12},
{4, 14},
{4, 17},
{4, 26},
{4, 28},
{4, 32},
{4, 35},
{4, 42},
{4, 44},
{4, 45},
{4, 46},
{4, 47},
{4, 51},
{4, 53},
{4, 55},
{4, 57},
{4, 60},
{5, 6},
{5, 7},
{5, 10},
{5, 12},
{5, 16},
{5, 18},
{5, 19},
{5, 20},
{5, 25},
{5, 26},
{5, 30},
{5, 31},
{5, 32},
{5, 33},
{5, 34},
{5, 37},
{5, 38},
{5, 39},
{5, 40},
{5, 42},
{5, 43},
{5, 45},
{5, 46},
{5, 47},
{5, 48},
{5, 49},
{5, 53},
{5, 54},
{5, 57},
{5, 59},
{5, 60},
{6, 7},
{6, 8},
{6, 11},
{6, 12},
{6, 13},
{6, 14},
{6, 16},
{6, 19},
{6, 21},
{6, 24},
{6, 26},
{6, 28},
{6, 30},
{6, 33},
{6, 35},
{6, 36},
{6, 37},
{6, 39},
{6, 40},
{6, 41},
{6, 43},
{6, 44},
{6, 45},
{6, 46},
{6, 47},
{6, 51},
{6, 54},
{6, 55},
{6, 57},
{6, 58},
{7, 9},
{7, 10},
{7, 12},
{7, 17},
{7, 18},
{7, 19},
{7, 21},
{7, 22},
{7, 23},
{7, 25},
{7, 26},
{7, 30},
{7, 32},
{7, 33},
{7, 36},
{7, 37},
{7, 38},
{7, 39},
{7, 42},
{7, 43},
{7, 47},
{7, 49},
{7, 50},
{7, 51},
{7, 52},
{7, 54},
{7, 55},
{7, 57},
{7, 60},
{8, 9},
{8, 12},
{8, 15},
{8, 17},
{8, 19},
{8, 22},
{8, 23},
{8, 25},
{8, 26},
{8, 29},
{8, 33},
{8, 37},
{8, 41},
{8, 43},
{8, 44},
{8, 46},
{8, 47},
{8, 49},
{8, 50},
{8, 52},
{8, 56},
{8, 59},
{8, 60},
{9, 10},
{9, 11},
{9, 13},
{9, 14},
{9, 16},
{9, 17},
{9, 19},
{9, 20},
{9, 21},
{9, 22},
{9, 24},
{9, 26},
{9, 27},
{9, 29},
{9, 31},
{9, 33},
{9, 35},
{9, 37},
{9, 38},
{9, 42},
{9, 46},
{9, 47},
{9, 48},
{9, 50},
{9, 51},
{9, 53},
{9, 54},
{9, 56},
{9, 58},
{9, 59},
{9, 60},
{10, 11},
{10, 12},
{10, 13},
{10, 14},
{10, 16},
{10, 19},
{10, 22},
{10, 23},
{10, 25},
{10, 27},
{10, 28},
{10, 29},
{10, 30},
{10, 35},
{10, 37},
{10, 38},
{10, 39},
{10, 41},
{10, 45},
{10, 46},
{10, 47},
{10, 48},
{10, 49},
{10, 51},
{10, 52},
{10, 54},
{10, 55},
{10, 58},
{11, 14},
{11, 18},
{11, 19},
{11, 20},
{11, 22},
{11, 23},
{11, 24},
{11, 25},
{11, 27},
{11, 29},
{11, 33},
{11, 35},
{11, 36},
{11, 38},
{11, 39},
{11, 41},
{11, 43},
{11, 45},
{11, 47},
{11, 48},
{11, 49},
{11, 51},
{11, 55},
{11, 58},
{11, 60},
{12, 13},
{12, 16},
{12, 17},
{12, 19},
{12, 25},
{12, 28},
{12, 29},
{12, 30},
{12, 32},
{12, 33},
{12, 34},
{12, 35},
{12, 36},
{12, 38},
{12, 39},
{12, 41},
{12, 42},
{12, 43},
{12, 44},
{12, 48},
{12, 49},
{12, 50},
{12, 51},
{12, 52},
{12, 53},
{12, 54},
{12, 57},
{12, 58},
{12, 59},
{12, 60},
{13, 14},
{13, 16},
{13, 17},
{13, 18},
{13, 21},
{13, 22},
{13, 25},
{13, 26},
{13, 27},
{13, 30},
{13, 34},
{13, 35},
{13, 36},
{13, 37},
{13, 38},
{13, 40},
{13, 41},
{13, 42},
{13, 44},
{13, 45},
{13, 48},
{13, 50},
{13, 51},
{13, 54},
{13, 55},
{14, 18},
{14, 19},
{14, 21},
{14, 23},
{14, 24},
{14, 26},
{14, 30},
{14, 34},
{14, 37},
{14, 38},
{14, 39},
{14, 42},
{14, 44},
{14, 46},
{14, 48},
{14, 49},
{14, 50},
{14, 52},
{14, 53},
{14, 55},
{14, 58},
{15, 16},
{15, 17},
{15, 18},
{15, 19},
{15, 20},
{15, 25},
{15, 27},
{15, 28},
{15, 29},
{15, 30},
{15, 31},
{15, 33},
{15, 34},
{15, 37},
{15, 38},
{15, 39},
{15, 40},
{15, 41},
{15, 42},
{15, 43},
{15, 44},
{15, 47},
{15, 49},
{15, 50},
{15, 57},
{15, 58},
{15, 59},
{15, 60},
{16, 22},
{16, 24},
{16, 25},
{16, 29},
{16, 32},
{16, 33},
{16, 34},
{16, 35},
{16, 39},
{16, 41},
{16, 42},
{16, 45},
{16, 46},
{16, 52},
{16, 53},
{16, 55},
{16, 56},
{16, 57},
{16, 58},
{16, 60},
{17, 18},
{17, 22},
{17, 23},
{17, 25},
{17, 27},
{17, 30},
{17, 33},
{17, 35},
{17, 36},
{17, 37},
{17, 38},
{17, 40},
{17, 45},
{17, 46},
{17, 49},
{17, 50},
{17, 54},
{17, 58},
{17, 59},
{17, 60},
{18, 20},
{18, 24},
{18, 28},
{18, 29},
{18, 30},
{18, 31},
{18, 32},
{18, 33},
{18, 34},
{18, 36},
{18, 37},
{18, 39},
{18, 40},
{18, 41},
{18, 42},
{18, 45},
{18, 47},
{18, 48},
{18, 49},
{18, 52},
{18, 55},
{18, 56},
{18, 57},
{19, 20},
{19, 22},
{19, 23},
{19, 24},
{19, 25},
{19, 27},
{19, 31},
{19, 34},
{19, 36},
{19, 40},
{19, 42},
{19, 43},
{19, 45},
{19, 49},
{19, 51},
{19, 52},
{19, 53},
{19, 55},
{19, 59},
{20, 24},
{20, 26},
{20, 27},
{20, 28},
{20, 29},
{20, 30},
{20, 32},
{20, 33},
{20, 35},
{20, 36},
{20, 37},
{20, 41},
{20, 42},
{20, 44},
{20, 46},
{20, 47},
{20, 49},
{20, 50},
{20, 52},
{20, 57},
{20, 60},
{21, 24},
{21, 25},
{21, 27},
{21, 28},
{21, 29},
{21, 34},
{21, 36},
{21, 37},
{21, 40},
{21, 42},
{21, 43},
{21, 47},
{21, 48},
{21, 49},
{21, 51},
{21, 54},
{21, 55},
{21, 58},
{21, 59},
{21, 60},
{22, 24},
{22, 26},
{22, 27},
{22, 29},
{22, 30},
{22, 31},
{22, 33},
{22, 34},
{22, 37},
{22, 38},
{22, 40},
{22, 41},
{22, 43},
{22, 44},
{22, 45},
{22, 47},
{22, 51},
{22, 55},
{22, 56},
{23, 26},
{23, 30},
{23, 31},
{23, 32},
{23, 35},
{23, 36},
{23, 37},
{23, 38},
{23, 40},
{23, 41},
{23, 44},
{23, 47},
{23, 48},
{23, 49},
{23, 50},
{23, 51},
{23, 56},
{23, 57},
{23, 58},
{24, 25},
{24, 34},
{24, 37},
{24, 39},
{24, 40},
{24, 41},
{24, 43},
{24, 45},
{24, 46},
{24, 50},
{24, 51},
{24, 53},
{24, 55},
{24, 57},
{24, 58},
{24, 59},
{25, 26},
{25, 27},
{25, 29},
{25, 30},
{25, 31},
{25, 36},
{25, 37},
{25, 38},
{25, 40},
{25, 41},
{25, 43},
{25, 45},
{25, 46},
{25, 47},
{25, 48},
{25, 50},
{25, 52},
{25, 58},
{25, 60},
{26, 27},
{26, 29},
{26, 31},
{26, 32},
{26, 33},
{26, 36},
{26, 37},
{26, 40},
{26, 42},
{26, 44},
{26, 45},
{26, 46},
{26, 47},
{26, 49},
{26, 53},
{26, 56},
{26, 57},
{26, 60},
{27, 29},
{27, 33},
{27, 35},
{27, 37},
{27, 39},
{27, 41},
{27, 42},
{27, 43},
{27, 48},
{27, 50},
{27, 51},
{27, 53},
{27, 54},
{27, 55},
{27, 56},
{28, 31},
{28, 34},
{28, 35},
{28, 36},
{28, 37},
{28, 38},
{28, 39},
{28, 40},
{28, 41},
{28, 42},
{28, 45},
{28, 51},
{28, 54},
{28, 58},
{29, 32},
{29, 33},
{29, 34},
{29, 37},
{29, 38},
{29, 40},
{29, 43},
{29, 44},
{29, 51},
{29, 52},
{29, 54},
{29, 55},
{29, 57},
{29, 58},
{29, 60},
{30, 35},
{30, 37},
{30, 39},
{30, 40},
{30, 41},
{30, 43},
{30, 44},
{30, 45},
{30, 48},
{30, 49},
{30, 50},
{30, 52},
{30, 53},
{30, 57},
{30, 59},
{30, 60},
{31, 32},
{31, 33},
{31, 36},
{31, 40},
{31, 41},
{31, 43},
{31, 44},
{31, 46},
{31, 47},
{31, 48},
{31, 49},
{31, 50},
{31, 51},
{31, 52},
{31, 56},
{31, 58},
{31, 59},
{32, 36},
{32, 37},
{32, 38},
{32, 39},
{32, 41},
{32, 43},
{32, 44},
{32, 45},
{32, 46},
{32, 50},
{32, 51},
{32, 52},
{32, 53},
{32, 55},
{32, 57},
{32, 58},
{32, 59},
{32, 60},
{33, 38},
{33, 39},
{33, 40},
{33, 41},
{33, 44},
{33, 45},
{33, 46},
{33, 47},
{33, 49},
{33, 50},
{33, 51},
{33, 52},
{33, 54},
{33, 56},
{33, 57},
{33, 60},
{34, 37},
{34, 41},
{34, 42},
{34, 43},
{34, 45},
{34, 46},
{34, 48},
{34, 50},
{34, 52},
{34, 53},
{34, 55},
{34, 56},
{34, 60},
{35, 36},
{35, 37},
{35, 39},
{35, 42},
{35, 44},
{35, 46},
{35, 48},
{35, 50},
{35, 52},
{35, 53},
{35, 57},
{35, 58},
{35, 60},
{36, 37},
{36, 38},
{36, 39},
{36, 40},
{36, 44},
{36, 45},
{36, 46},
{36, 47},
{36, 48},
{36, 51},
{36, 54},
{36, 58},
{36, 59},
{37, 38},
{37, 45},
{37, 47},
{37, 49},
{37, 53},
{37, 55},
{37, 58},
{37, 59},
{38, 40},
{38, 42},
{38, 43},
{38, 57},
{38, 58},
{38, 60},
{39, 47},
{39, 50},
{39, 51},
{39, 52},
{39, 54},
{39, 55},
{39, 56},
{39, 57},
{39, 60},
{40, 41},
{40, 45},
{40, 52},
{40, 53},
{40, 54},
{40, 55},
{40, 56},
{40, 58},
{40, 59},
{40, 60},
{41, 44},
{41, 48},
{41, 50},
{41, 53},
{41, 54},
{41, 55},
{41, 58},
{42, 43},
{42, 46},
{42, 47},
{42, 48},
{42, 49},
{42, 50},
{42, 52},
{42, 54},
{42, 56},
{42, 57},
{43, 44},
{43, 46},
{43, 48},
{43, 49},
{43, 50},
{43, 54},
{43, 55},
{43, 59},
{44, 45},
{44, 46},
{44, 48},
{44, 50},
{44, 53},
{44, 55},
{44, 59},
{45, 51},
{45, 53},
{45, 54},
{45, 55},
{45, 59},
{46, 47},
{46, 48},
{46, 50},
{46, 51},
{46, 55},
{46, 57},
{46, 58},
{46, 59},
{46, 60},
{47, 49},
{47, 51},
{47, 54},
{47, 58},
{48, 49},
{48, 51},
{48, 54},
{48, 58},
{48, 59},
{48, 60},
{49, 52},
{49, 53},
{49, 54},
{49, 58},
{49, 59},
{49, 60},
{50, 52},
{50, 54},
{50, 55},
{50, 58},
{50, 60},
{51, 52},
{51, 56},
{51, 57},
{52, 55},
{52, 59},
{52, 60},
{53, 55},
{54, 56},
{54, 58},
{55, 56},
{55, 58},
{55, 59},
{55, 60},
{56, 58},
{56, 59},
{56, 60},
{57, 59},
{57, 60},
{58, 59},
{58, 60},
{59, 60}}
